Reading model...
...model read.
creating competitive generators file...
...competitive generators recorded.
Loading data...
.. real-time data read.
Compiling instance...
...instance created.
Creating Offer Mitigation (model will solve as dispatch if TRUE)...
...storage offer mitigation file created
Converting model to MPEC...
...converted
NOTE: initial MIP solve with only storage competitive to get feasible solution
Solving...

Welcome to IBM(R) ILOG(R) CPLEX(R) Interactive Optimizer 12.9.0.0
  with Simplex, Mixed Integer & Barrier Optimizers
5725-A06 5725-A29 5724-Y48 5724-Y49 5724-Y54 5724-Y55 5655-Y21
Copyright IBM Corp. 1988, 2019.  All Rights Reserved.

Type 'help' for a list of available commands.
Type 'help' followed by a command name for more
information on commands.

CPLEX> Logfile 'cplex.log' closed.
Logfile 'C:\Users\llavin\Desktop\test826\logs\tmp2xvcbi73.cplex.log' open.
CPLEX> New value for parallel optimization mode: -1
CPLEX> New value for mixed integer optimality gap tolerance: 0.01
CPLEX> New value for emphasis for MIP optimization: 1
CPLEX> New value for integrality tolerance: 1e-12
CPLEX> New value for deterministic time limit in ticks: 150000
CPLEX> Problem 'C:\Users\llavin\Desktop\test826\logs\tmp0dcadpwn.pyomo.lp' read.
Read time = 0.55 sec. (28.17 ticks)
CPLEX> Problem name         : C:\Users\llavin\Desktop\test826\logs\tmp0dcadpwn.pyomo.lp
Objective sense      : Maximize
Variables            :  107795  [Nneg: 1,  Box: 44062,  Free: 8928,
                                 Binary: 54804]
Objective nonzeros   :   17379
Linear constraints   :  247027  [Less: 82874,  Greater: 118442,  Equal: 45711]
  Nonzeros           :  624881
  RHS nonzeros       :  134901

Variables            : Min LB: -5000.000        Max UB: 1000000.       
Objective nonzeros   : Min   : 0.1944444        Max   : 208.3333       
Linear constraints   :
  Nonzeros           : Min   : 0.1944444        Max   : 1000000.       
  RHS nonzeros       : Min   : 0.1944444        Max   : 1000000.       
CPLEX> CPXPARAM_Parallel                                -1
CPXPARAM_Emphasis_MIP                            1
CPXPARAM_DetTimeLimit                            150000
CPXPARAM_MIP_Tolerances_MIPGap                   0.01
CPXPARAM_MIP_Tolerances_Integrality              9.9999999999999998e-13
Tried aggregator 3 times.
MIP Presolve eliminated 181946 rows and 41661 columns.
MIP Presolve added 6004 rows and 0 columns.
MIP Presolve modified 49488 coefficients.
Aggregator did 25922 substitutions.
Reduced MIP has 45163 rows, 38580 columns, and 137875 nonzeros.
Reduced MIP has 15184 binaries, 0 generals, 0 SOSs, and 0 indicators.
Presolve time = 0.63 sec. (354.22 ticks)
Probing fixed 856 vars, tightened 10487 bounds.
Probing time = 0.36 sec. (16.79 ticks)
Tried aggregator 2 times.
MIP Presolve eliminated 1928 rows and 1712 columns.
MIP Presolve modified 5456 coefficients.
Aggregator did 70 substitutions.
Reduced MIP has 43165 rows, 36798 columns, and 126218 nonzeros.
Reduced MIP has 14328 binaries, 0 generals, 0 SOSs, and 0 indicators.
Presolve time = 0.25 sec. (212.72 ticks)
Probing fixed 0 vars, tightened 578 bounds.
Probing time = 0.49 sec. (16.32 ticks)
Clique table members: 88703.
MIP emphasis: integer feasibility.
MIP search method: dynamic search.
Parallel mode: opportunistic, using up to 32 threads.
Root relaxation solution time = 0.80 sec. (1562.72 ticks)

        Nodes                                         Cuts/
   Node  Left     Objective  IInf  Best Integer    Best Bound    ItCnt     Gap

      0     0        0.0000     2                      0.0000     8179         
*     0+    0                            0.0000        0.0000             0.00%
      0     0        cutoff              0.0000        0.0000     8179    0.00%
Elapsed time = 3.19 sec. (2752.38 ticks, tree = 0.01 MB, solutions = 1)

Root node processing (before b&c):
  Real time             =    3.22 sec. (2756.18 ticks)
Parallel b&c, 32 threads:
  Real time             =    0.00 sec. (0.00 ticks)
  Sync time (average)   =    0.00 sec.
  Wait time (average)   =    0.00 sec.
                          ------------
Total (root+branch&cut) =    3.22 sec. (2756.18 ticks)

Solution pool: 1 solution saved.

MIP - Integer optimal solution:  Objective =  0.0000000000e+00
Solution time =    3.25 sec.  Iterations = 8179  Nodes = 0
Deterministic time = 2756.49 ticks  (848.15 ticks/sec)

CPLEX> Incumbent solution written to file 'C:\Users\llavin\Desktop\test826\logs\tmpt1db_2_x.cplex.sol'.
CPLEX> NOTE: no warmstart specified for MIP iteration, default behavior is true
NOTE: resolving with all competitive generators using storage-only solution to warmstart
Solving...

Welcome to IBM(R) ILOG(R) CPLEX(R) Interactive Optimizer 12.9.0.0
  with Simplex, Mixed Integer & Barrier Optimizers
5725-A06 5725-A29 5724-Y48 5724-Y49 5724-Y54 5724-Y55 5655-Y21
Copyright IBM Corp. 1988, 2019.  All Rights Reserved.

Type 'help' for a list of available commands.
Type 'help' followed by a command name for more
information on commands.

CPLEX> Logfile 'cplex.log' closed.
Logfile 'C:\Users\llavin\Desktop\test826\logs\tmpt36135p5.cplex.log' open.
CPLEX> New value for parallel optimization mode: -1
CPLEX> New value for mixed integer optimality gap tolerance: 0.01
CPLEX> New value for emphasis for MIP optimization: 1
CPLEX> New value for integrality tolerance: 1e-12
CPLEX> New value for deterministic time limit in ticks: 150000
CPLEX> Problem 'C:\Users\llavin\Desktop\test826\logs\tmpwqorpii1.pyomo.lp' read.
Read time = 0.55 sec. (28.22 ticks)
CPLEX> MIP start file 'C:\Users\llavin\Desktop\test826\logs\tmp3akef6bz.cplex.mst' read.
CPLEX> Problem name         : C:\Users\llavin\Desktop\test826\logs\tmpwqorpii1.pyomo.lp
Objective sense      : Maximize
Variables            :  109235  [Nneg: 1,  Box: 45502,  Free: 8928,
                                 Binary: 54804]
Objective nonzeros   :   18771
Linear constraints   :  247027  [Less: 82874,  Greater: 118442,  Equal: 45711]
  Nonzeros           :  624881
  RHS nonzeros       :  134901

Variables            : Min LB: -5000.000        Max UB: 1000000.       
Objective nonzeros   : Min   : 0.1944444        Max   : 208.3333       
Linear constraints   :
  Nonzeros           : Min   : 0.1944444        Max   : 1000000.       
  RHS nonzeros       : Min   : 0.1944444        Max   : 1000000.       
CPLEX> CPXPARAM_Parallel                                -1
CPXPARAM_Emphasis_MIP                            1
CPXPARAM_DetTimeLimit                            150000
CPXPARAM_MIP_Tolerances_MIPGap                   0.01
CPXPARAM_MIP_Tolerances_Integrality              9.9999999999999998e-13
Warning:  No solution found from 1 MIP starts.
Retaining values of one MIP start for possible repair.
Tried aggregator 3 times.
MIP Presolve eliminated 181946 rows and 43101 columns.
MIP Presolve added 6004 rows and 0 columns.
MIP Presolve modified 49488 coefficients.
Aggregator did 25922 substitutions.
Reduced MIP has 45163 rows, 38580 columns, and 137875 nonzeros.
Reduced MIP has 15184 binaries, 0 generals, 0 SOSs, and 0 indicators.
Presolve time = 0.64 sec. (354.95 ticks)
Probing fixed 856 vars, tightened 10487 bounds.
Probing time = 0.36 sec. (16.79 ticks)
Tried aggregator 2 times.
MIP Presolve eliminated 1928 rows and 1712 columns.
MIP Presolve modified 5456 coefficients.
Aggregator did 70 substitutions.
Reduced MIP has 43165 rows, 36798 columns, and 126218 nonzeros.
Reduced MIP has 14328 binaries, 0 generals, 0 SOSs, and 0 indicators.
Presolve time = 0.25 sec. (212.59 ticks)
Probing fixed 0 vars, tightened 578 bounds.
Probing time = 0.50 sec. (16.32 ticks)
Clique table members: 88703.
MIP emphasis: integer feasibility.
MIP search method: dynamic search.
Parallel mode: opportunistic, using up to 32 threads.
Root relaxation solution time = 0.98 sec. (1770.89 ticks)

        Nodes                                         Cuts/
   Node  Left     Objective  IInf  Best Integer    Best Bound    ItCnt     Gap

      0     0    14262.5173   497                  14262.5173     9419         
*     0+    0                            0.0000    14262.5173              --- 
      0     0    13958.9555   317        0.0000     Cuts: 124     9498     --- 
      0     0    13958.9555   354        0.0000     Cuts: 280     9679     --- 
      0     0    13958.9555   361        0.0000     Cuts: 431     9909     --- 
Repair heuristic found nothing.
      0    34    13957.4567   359        0.0000  Impl Bds: 48    10537     --- 
Elapsed time = 10.73 sec. (5368.49 ticks, tree = 0.41 MB, solutions = 1)
    263    70    13720.5009   371        0.0000    13957.4567    11865     --- 
    650   238    11810.6290   317        0.0000    13957.4567    13505     --- 
   1051   654    12336.6566   326        0.0000    13957.4567    18564     --- 
   1295  1038    11770.5628   307        0.0000    13957.4567    22374     --- 
   1563  1167    11228.5762   304        0.0000    13957.4567    22967     --- 
   1922  1397    10728.3816   273        0.0000    13957.4567    24236     --- 
   2286  1577     9329.9821   240        0.0000    13957.4567    25175     --- 
   2633  1932    12251.8972   287        0.0000    13957.4567    26826     --- 
   2979  2304    12956.9384   302        0.0000    13957.4567    28464     --- 
   4310  3416     4633.5651    76        0.0000    13957.4567    33549     --- 
Elapsed time = 29.80 sec. (8475.08 ticks, tree = 240.97 MB, solutions = 1)
   5546  4426     6896.4319   151        0.0000    13957.4567    45798     --- 
   5740  5003    infeasible              0.0000     1261.8247    60813     --- 

GUB cover cuts applied:  2
Cover cuts applied:  45
Implied bound cuts applied:  8
Flow cuts applied:  235
Mixed integer rounding cuts applied:  162
Zero-half cuts applied:  2
Lift and project cuts applied:  21
Gomory fractional cuts applied:  21

Root node processing (before b&c):
  Real time             =    7.24 sec. (5283.55 ticks)
Parallel b&c, 32 threads:
  Real time             =   41.26 sec. (12621.22 ticks)
  Sync time (average)   =    3.34 sec.
  Wait time (average)   =    0.36 sec.
                          ------------
Total (root+branch&cut) =   48.50 sec. (17904.77 ticks)

Solution pool: 1 solution saved.

MIP - Integer optimal solution:  Objective =  0.0000000000e+00
Solution time =   48.53 sec.  Iterations = 61123  Nodes = 5805
Deterministic time = 17905.08 ticks  (368.93 ticks/sec)

CPLEX> Incumbent solution written to file 'C:\Users\llavin\Desktop\test826\logs\tmpenojapz9.cplex.sol'.
CPLEX> Exporting results... 
